unsat
(error "line 712 column 17: model is not available")
(error "line 713 column 17: model is not available")
(error "line 714 column 18: model is not available")
(error "line 715 column 18: model is not available")
(error "line 716 column 18: model is not available")
(error "line 717 column 18: model is not available")
(error "line 718 column 18: model is not available")
(error "line 719 column 18: model is not available")
(error "line 720 column 18: model is not available")
(error "line 721 column 17: model is not available")
(error "line 722 column 17: model is not available")
(error "line 723 column 17: model is not available")
(error "line 724 column 17: model is not available")
(error "line 725 column 17: model is not available")
(error "line 726 column 17: model is not available")
(error "line 727 column 17: model is not available")
(error "line 728 column 17: model is not available")
(error "line 729 column 38: model is not available")
(error "line 730 column 45: model is not available")
(error "line 731 column 38: model is not available")
(error "line 732 column 45: model is not available")
(error "line 733 column 46: model is not available")
(error "line 734 column 53: model is not available")
(error "line 735 column 40: model is not available")
(error "line 736 column 47: model is not available")
(error "line 737 column 38: model is not available")
(error "line 738 column 45: model is not available")
(error "line 739 column 38: model is not available")
(error "line 740 column 45: model is not available")
(error "line 741 column 41: model is not available")
(error "line 742 column 48: model is not available")
(error "line 743 column 41: model is not available")
(error "line 744 column 48: model is not available")
(error "line 745 column 41: model is not available")
(error "line 746 column 48: model is not available")
(error "line 747 column 41: model is not available")
(error "line 748 column 41: model is not available")
(error "line 749 column 48: model is not available")
(error "line 750 column 37: model is not available")
(error "line 751 column 44: model is not available")
(error "line 752 column 42: model is not available")
(error "line 753 column 42: model is not available")
(error "line 754 column 42: model is not available")
(error "line 755 column 38: model is not available")
(error "line 756 column 38: model is not available")
(error "line 757 column 38: model is not available")
(error "line 758 column 38: model is not available")
(error "line 759 column 38: model is not available")
(error "line 760 column 41: model is not available")
(error "line 761 column 48: model is not available")
(error "line 762 column 41: model is not available")
(error "line 763 column 48: model is not available")
(error "line 764 column 41: model is not available")
(error "line 765 column 48: model is not available")
(error "line 766 column 41: model is not available")
(error "line 767 column 48: model is not available")
(error "line 768 column 41: model is not available")
(error "line 769 column 48: model is not available")
(error "line 770 column 44: model is not available")
(error "line 771 column 22: model is not available")
(error "line 772 column 20: model is not available")
(error "line 773 column 22: model is not available")
(error "line 774 column 22: model is not available")
(error "line 775 column 29: model is not available")
(error "line 776 column 38: model is not available")
(error "line 777 column 36: model is not available")
(error "line 778 column 36: model is not available")
(error "line 779 column 31: model is not available")
(error "line 780 column 31: model is not available")
(error "line 781 column 31: model is not available")
(error "line 782 column 30: model is not available")
(error "line 783 column 32: model is not available")
(error "line 784 column 39: model is not available")
(error "line 785 column 32: model is not available")
(error "line 786 column 39: model is not available")
(error "line 787 column 30: model is not available")
(error "line 788 column 32: model is not available")
(error "line 789 column 39: model is not available")
(error "line 790 column 32: model is not available")
(error "line 791 column 39: model is not available")
(error "line 792 column 31: model is not available")
(error "line 793 column 31: model is not available")
(error "line 794 column 52: model is not available")
(error "line 795 column 51: model is not available")
(error "line 796 column 51: model is not available")
(error "line 797 column 50: model is not available")
(error "line 798 column 50: model is not available")
(error "line 799 column 52: model is not available")
(error "line 800 column 50: model is not available")
(error "line 801 column 51: model is not available")
(error "line 802 column 50: model is not available")
(error "line 803 column 50: model is not available")
(error "line 804 column 52: model is not available")
(error "line 805 column 51: model is not available")
(error "line 806 column 50: model is not available")
(error "line 807 column 50: model is not available")
(error "line 808 column 56: model is not available")
(error "line 809 column 55: model is not available")
(error "line 810 column 55: model is not available")
(error "line 811 column 55: model is not available")
(error "line 812 column 55: model is not available")
(error "line 813 column 46: model is not available")
(error "line 814 column 46: model is not available")
(error "line 815 column 46: model is not available")
(error "line 816 column 46: model is not available")
(error "line 817 column 54: model is not available")
(error "line 818 column 54: model is not available")
(error "line 819 column 54: model is not available")
(error "line 820 column 54: model is not available")
(error "line 821 column 54: model is not available")
(error "line 822 column 54: model is not available")
(error "line 823 column 40: model is not available")
(error "line 824 column 40: model is not available")
(error "line 825 column 40: model is not available")
(error "line 826 column 40: model is not available")
(error "line 827 column 41: model is not available")
(error "line 828 column 41: model is not available")
(error "line 829 column 41: model is not available")
(error "line 830 column 41: model is not available")
(error "line 831 column 50: model is not available")
(error "line 832 column 50: model is not available")
(error "line 833 column 50: model is not available")
(error "line 834 column 50: model is not available")
(error "line 835 column 43: model is not available")
(error "line 836 column 43: model is not available")
(error "line 837 column 43: model is not available")
(error "line 838 column 43: model is not available")
(error "line 839 column 27: model is not available")
(error "line 840 column 30: model is not available")
(error "line 841 column 30: model is not available")
(error "line 842 column 36: model is not available")
(error "line 843 column 36: model is not available")
(error "line 844 column 36: model is not available")
(error "line 845 column 30: model is not available")
(error "line 846 column 36: model is not available")
(error "line 847 column 36: model is not available")
(error "line 848 column 36: model is not available")
(error "line 849 column 31: model is not available")
(error "line 850 column 31: model is not available")
(error "line 851 column 30: model is not available")
(error "line 852 column 18: model is not available")
(error "line 853 column 25: model is not available")
(error "line 854 column 18: model is not available")
(error "line 855 column 25: model is not available")
(error "line 856 column 18: model is not available")
(error "line 857 column 25: model is not available")
(error "line 858 column 18: model is not available")
(error "line 859 column 25: model is not available")
(error "line 860 column 18: model is not available")
(error "line 861 column 25: model is not available")
(error "line 862 column 18: model is not available")
(error "line 863 column 25: model is not available")
(error "line 865 column 10: model is not available")
(:added-eqs                      18
 :arith-bound-propagations-cheap 3
 :arith-bound-propagations-lp    21
 :arith-lower                    22
 :arith-make-feasible            5
 :arith-max-columns              66
 :arith-max-rows                 42
 :arith-propagations             3
 :arith-upper                    17
 :array-ax1                      1
 :binary-propagations            66
 :bv-bit2core                    158
 :bv-diseqs                      1
 :bv->core-eq                    1
 :conflicts                      2
 :decisions                      2
 :del-clause                     185
 :eliminated-applications        18
 :eliminated-vars                6
 :max-memory                     3.56
 :memory                         2.86
 :mk-bool-var                    363
 :mk-clause                      198
 :num-allocs                     601331
 :num-checks                     1
 :propagations                   103
 :rlimit-count                   17942
 :time                           0.01
 :total-time                     0.01)

real	0m0.014s
user	0m0.014s
sys	0m0.000s
State: RE Run_time: 0.016030073165893555